\* Resolución *\
Minimize
función_objetivo: 0.013 x1 + 0.008 x2
Subject To
restriccion_0: x1 + x2 = 100
restriccion_1: 0.1 x1 + 0.2 x2 >= 8
restriccion_2: 0.08 x1 + 0.1 x2 >= 6
restriccion_3: 0.001 x1 + 0.005 x2 = 2
restriccion_4: 0.002 x1 + 0.005 x2 <= 0.4
End
